
List of user-set options:

                                    Name   Value                used
                        file_print_level = 5                     yes
                   hessian_approximation = limited-memory        yes
                           linear_solver = mumps                 yes
                                max_iter = 400                   yes
                      nlp_scaling_method = user-scaling          yes
                             output_file = /Users/marcello/Documents/zhaw/BAZL/DRACONIAN/Dymos/terrain_traj_v3_out/IPOPT.out  yes
                             print_level = 5                     yes
                      print_user_options = yes                   yes
                                      sb = yes                   yes
This is Ipopt version 3.14.19, running with linear solver MUMPS 5.8.2.

Number of nonzeros in equality constraint Jacobian...:     6114
Number of nonzeros in inequality constraint Jacobian.:     8955
Number of nonzeros in Lagrangian Hessian.............:        0

Total number of variables............................:      178
                     variables with only lower bounds:        0
                variables with lower and upper bounds:      122
                     variables with only upper bounds:        0
Total number of equality constraints.................:      132
Total number of inequality constraints...............:      135
        inequality constraints with only lower bounds:       45
   inequality constraints with lower and upper bounds:       45
        inequality constraints with only upper bounds:       45

iter    objective    inf_pr   inf_du lg(mu)  ||d||  lg(rg) alpha_du alpha_pr  ls
   0  5.0000000e+00 3.73e+01 1.06e+00   0.0 0.00e+00    -  0.00e+00 0.00e+00   0
   1  4.9964640e+00 3.33e+01 3.53e+00   0.1 1.54e+01    -  3.96e-02 9.78e-02f  1
   2  5.1712450e+00 2.08e+01 1.13e+01  -0.8 1.35e+01    -  1.23e-01 3.47e-01f  1
   3  5.3471690e+00 1.86e+01 1.34e+01  -0.4 1.62e+01    -  3.85e-01 1.09e-01f  1
   4  5.9815735e+00 1.04e+01 1.77e+01   0.0 1.46e+01    -  2.40e-01 4.33e-01f  1
   5  6.6725251e+00 2.32e+00 1.55e+01  -1.0 7.47e+00    -  2.91e-01 9.25e-01h  1
   6  6.6725600e+00 2.15e+00 1.58e+01  -5.7 2.00e+00    -  4.78e-01 6.92e-02h  1
   7  6.6787167e+00 2.14e-04 8.74e-01  -1.6 4.35e+00    -  8.50e-01 1.00e+00f  1
   8  6.6054774e+00 1.94e-03 2.19e-01  -2.9 7.32e-01    -  9.71e-01 1.00e+00h  1
   9  4.8084979e+00 9.01e-01 1.25e-01  -1.8 8.33e+01    -  2.94e-01 2.16e-01f  1
iter    objective    inf_pr   inf_du lg(mu)  ||d||  lg(rg) alpha_du alpha_pr  ls
  10  3.6415099e+00 1.30e+00 1.40e-01  -1.3 5.53e+01    -  4.02e-01 2.11e-01f  1
  11  3.5864481e+00 2.84e-02 9.44e-02  -1.7 1.20e+01    -  4.61e-01 1.00e+00h  1
  12  2.9866014e+00 4.98e-01 1.25e-01  -1.8 6.01e+00    -  4.70e-01 9.97e-01h  1
  13  3.0420314e+00 4.62e-03 6.02e-01  -2.6 2.29e+00    -  7.16e-01 1.00e+00h  1
  14  3.0393079e+00 5.88e-06 2.72e-02  -3.8 8.23e-02    -  9.99e-01 1.00e+00h  1
  15  2.9514463e+00 5.79e-03 2.55e-02  -3.3 1.33e+01    -  1.00e+00 6.62e-02f  1
  16  2.4826397e+00 1.13e+00 2.69e-02  -2.6 2.23e+01    -  4.70e-01 2.21e-01f  1
  17  2.4890254e+00 1.86e-01 1.66e-02  -2.4 5.26e+00    -  5.28e-01 5.56e-01h  1
  18  2.4530971e+00 4.60e-02 4.70e-02  -2.7 2.36e+00    -  7.47e-01 9.05e-01h  1
  19  2.3697548e+00 3.03e-02 7.00e-02  -3.0 1.93e+00    -  9.92e-01 1.00e+00h  1
iter    objective    inf_pr   inf_du lg(mu)  ||d||  lg(rg) alpha_du alpha_pr  ls
  20  2.3381263e+00 5.75e-03 5.57e-02  -3.0 8.93e-01    -  9.34e-01 1.00e+00h  1
  21  2.3188411e+00 4.63e-03 4.49e-02  -3.1 1.20e+00    -  8.72e-01 1.00e+00h  1
  22  2.3181736e+00 7.84e-07 6.63e-03  -4.3 1.95e-01    -  1.00e+00 1.00e+00h  1
  23  2.4050169e+00 1.66e-02 1.29e-02  -2.4 9.70e+00    -  2.41e-01 1.61e-01f  1
  24  2.2867156e+00 3.36e-02 2.08e-02  -3.1 2.86e+00    -  9.88e-01 5.63e-01h  1
  25  2.2962175e+00 2.68e-03 2.75e-03  -2.8 1.32e+00    -  1.00e+00 1.00e+00h  1
  26  2.2481521e+00 1.39e-02 8.59e-03  -3.2 1.38e+00    -  1.00e+00 9.98e-01h  1
  27  2.2279275e+00 2.32e-03 2.94e-03  -3.5 6.19e-01    -  1.00e+00 1.00e+00h  1
  28  2.2225793e+00 6.93e-04 5.65e-02  -4.0 1.63e+00    -  7.76e-01 9.92e-01h  1
  29  2.2201587e+00 7.29e-05 4.89e-03  -4.5 2.02e-01    -  1.00e+00 1.00e+00h  1
iter    objective    inf_pr   inf_du lg(mu)  ||d||  lg(rg) alpha_du alpha_pr  ls
  30  2.2208081e+00 1.00e-02 4.95e-03  -4.0 5.48e-01    -  1.00e+00 1.00e+00h  1
  31  2.2202399e+00 2.63e-05 2.61e-03  -4.2 2.66e-01    -  1.00e+00 1.00e+00h  1
  32  2.2198793e+00 1.96e-05 5.08e-04  -4.2 3.03e-01    -  1.00e+00 1.00e+00h  1
  33  2.2176118e+00 9.32e-05 4.27e-04  -5.0 2.14e-01    -  1.00e+00 1.00e+00h  1
  34  2.2173042e+00 5.39e-07 4.03e-04  -5.9 2.79e-02    -  1.00e+00 1.00e+00h  1
  35  2.2172662e+00 9.88e-08 3.21e-05  -7.3 1.30e-02    -  1.00e+00 1.00e+00h  1
  36  2.2172649e+00 2.03e-10 1.22e-07  -9.4 7.73e-04    -  1.00e+00 1.00e+00h  1
  37  2.2172649e+00 2.40e-13 7.93e-10 -11.0 5.20e-06    -  1.00e+00 1.00e+00h  1

Number of Iterations....: 37

                                   (scaled)                 (unscaled)
Objective...............:   2.2172648776975916e+00    2.2172648776975916e+00
Dual infeasibility......:   7.9331564654165584e-10    7.9331564654165584e-10
Constraint violation....:   2.3980817333378387e-13    2.3980817333378387e-13
Variable bound violation:   3.7595868196405036e-08    3.7595868196405036e-08
Complementarity.........:   1.0019617937671492e-11    1.0019617937671492e-11
Overall NLP error.......:   7.9331564654165584e-10    7.9331564654165584e-10


Number of objective function evaluations             = 38
Number of objective gradient evaluations             = 38
Number of equality constraint evaluations            = 38
Number of inequality constraint evaluations          = 38
Number of equality constraint Jacobian evaluations   = 38
Number of inequality constraint Jacobian evaluations = 38
Number of Lagrangian Hessian evaluations             = 0
Total seconds in IPOPT                               = 4.818

EXIT: Optimal Solution Found.
